Route #1: 1 1 12 19 25 53 50 45 18 28 1 
Route #2: 1 52 29 39 7 11 63 54 48 57 33 1 
Route #3: 1 21 44 59 32 20 58 61 26 1 
Route #4: 1 13 24 55 5 35 4 49 62 1 
Route #5: 1 23 46 9 22 15 17 1 
Route #6: 1 8 10 56 40 41 16 1 
Route #7: 1 51 64 6 47 34 14 27 1 
Route #8: 1 31 43 37 60 38 42 1 
Route #9: 1 3 36 30 2 1 

Cost 2022.26
Time 0.5759


 * Another infos *

 Iterations: 65 Time: 0.5759 sec - 0.0096 min - 0.0002 horas
0.0000 h 0.0096 min
Problem dimension: 65
